c Generated map
c Size: 30 * 30, weights in range: 1 to 10, walls: True, with ratio 0.05
c dim 2 of 3
c
p sp 900 1573
c graph contains 900 nodes and 1573 arcs
c
a 1 31 2
a 31 1 2
a 1 2 8
a 2 1 8
a 2 32 7
a 32 2 7
a 2 3 5
a 3 2 5
a 3 33 6
a 33 3 6
a 5 35 1
a 35 5 1
a 5 6 7
a 6 5 7
a 6 36 2
a 36 6 2
a 6 7 5
a 7 6 5
a 7 37 5
a 37 7 5
a 7 8 9
a 8 7 9
a 8 38 7
a 38 8 7
a 8 9 8
a 9 8 8
a 9 39 9
a 39 9 9
a 9 10 7
a 10 9 7
a 10 40 8
a 40 10 8
a 10 11 8
a 11 10 8
a 11 41 1
a 41 11 1
a 13 43 3
a 43 13 3
a 13 14 4
a 14 13 4
a 14 44 3
a 44 14 3
a 14 15 1
a 15 14 1
a 15 45 7
a 45 15 7
a 15 16 6
a 16 15 6
a 16 46 8
a 46 16 8
a 16 17 2
a 17 16 2
a 17 47 5
a 47 17 5
a 17 18 9
a 18 17 9
a 18 48 4
a 48 18 4
a 18 19 5
a 19 18 5
a 19 49 8
a 49 19 8
a 21 51 7
a 51 21 7
a 21 22 6
a 22 21 6
a 22 52 2
a 52 22 2
a 24 54 1
a 54 24 1
a 24 25 9
a 25 24 9
a 25 55 4
a 55 25 4
a 25 26 9
a 26 25 9
a 26 56 2
a 56 26 2
a 26 27 1
a 27 26 1
a 27 57 10
a 57 27 10
a 27 28 8
a 28 27 8
a 28 58 7
a 58 28 7
a 28 29 4
a 29 28 4
a 29 59 1
a 59 29 1
a 29 30 2
a 30 29 2
a 30 60 7
a 60 30 7
a 31 61 8
a 61 31 8
a 31 32 4
a 32 31 4
a 32 33 3
a 33 32 3
a 33 63 10
a 63 33 10
a 33 34 10
a 34 33 10
a 34 64 1
a 64 34 1
a 34 35 10
a 35 34 10
a 35 65 1
a 65 35 1
a 35 36 9
a 36 35 9
a 36 66 7
a 66 36 7
a 36 37 8
a 37 36 8
a 37 67 9
a 67 37 9
a 37 38 10
a 38 37 10
a 38 68 8
a 68 38 8
a 38 39 9
a 39 38 9
a 39 69 8
a 69 39 8
a 39 40 1
a 40 39 1
a 40 70 4
a 70 40 4
a 40 41 8
a 41 40 8
a 41 71 6
a 71 41 6
a 41 42 5
a 42 41 5
a 42 72 9
a 72 42 9
a 42 43 5
a 43 42 5
a 43 73 9
a 73 43 9
a 43 44 5
a 44 43 5
a 44 74 4
a 74 44 4
a 44 45 3
a 45 44 3
a 45 75 10
a 75 45 10
a 45 46 8
a 46 45 8
a 46 76 2
a 76 46 2
a 46 47 2
a 47 46 2
a 47 77 4
a 77 47 4
a 47 48 7
a 48 47 7
a 48 78 6
a 78 48 6
a 48 49 6
a 49 48 6
a 49 79 8
a 79 49 8
a 49 50 6
a 50 49 6
a 50 80 2
a 80 50 2
a 50 51 3
a 51 50 3
a 51 81 10
a 81 51 10
a 51 52 3
a 52 51 3
a 52 82 10
a 82 52 10
a 52 53 9
a 53 52 9
a 53 83 9
a 83 53 9
a 53 54 7
a 54 53 7
a 54 84 1
a 84 54 1
a 54 55 2
a 55 54 2
a 55 85 5
a 85 55 5
a 55 56 9
a 56 55 9
a 56 86 3
a 86 56 3
a 56 57 2
a 57 56 2
a 57 58 8
a 58 57 8
a 58 88 7
a 88 58 7
a 58 59 6
a 59 58 6
a 59 89 4
a 89 59 4
a 59 60 3
a 60 59 3
a 60 90 1
a 90 60 1
a 61 91 3
a 91 61 3
a 63 93 10
a 93 63 10
a 63 64 10
a 64 63 10
a 64 94 4
a 94 64 4
a 64 65 7
a 65 64 7
a 65 95 1
a 95 65 1
a 65 66 7
a 66 65 7
a 66 96 4
a 96 66 4
a 66 67 9
a 67 66 9
a 67 97 2
a 97 67 2
a 67 68 8
a 68 67 8
a 68 98 3
a 98 68 3
a 68 69 3
a 69 68 3
a 69 99 4
a 99 69 4
a 69 70 1
a 70 69 1
a 70 100 8
a 100 70 8
a 70 71 4
a 71 70 4
a 71 101 9
a 101 71 9
a 71 72 3
a 72 71 3
a 72 102 3
a 102 72 3
a 72 73 10
a 73 72 10
a 73 103 4
a 103 73 4
a 73 74 5
a 74 73 5
a 74 104 9
a 104 74 9
a 74 75 10
a 75 74 10
a 75 105 3
a 105 75 3
a 75 76 4
a 76 75 4
a 76 106 1
a 106 76 1
a 76 77 2
a 77 76 2
a 77 107 10
a 107 77 10
a 77 78 7
a 78 77 7
a 78 108 8
a 108 78 8
a 78 79 1
a 79 78 1
a 79 109 10
a 109 79 10
a 79 80 3
a 80 79 3
a 80 110 1
a 110 80 1
a 80 81 5
a 81 80 5
a 81 111 5
a 111 81 5
a 81 82 4
a 82 81 4
a 82 112 4
a 112 82 4
a 82 83 3
a 83 82 3
a 83 113 9
a 113 83 9
a 83 84 5
a 84 83 5
a 84 114 2
a 114 84 2
a 84 85 3
a 85 84 3
a 85 115 1
a 115 85 1
a 85 86 7
a 86 85 7
a 86 116 7
a 116 86 7
a 88 118 8
a 118 88 8
a 88 89 2
a 89 88 2
a 89 119 6
a 119 89 6
a 89 90 1
a 90 89 1
a 90 120 4
a 120 90 4
a 91 121 2
a 121 91 2
a 91 92 10
a 92 91 10
a 92 122 3
a 122 92 3
a 92 93 7
a 93 92 7
a 93 94 2
a 94 93 2
a 94 124 7
a 124 94 7
a 94 95 10
a 95 94 10
a 95 125 4
a 125 95 4
a 95 96 5
a 96 95 5
a 96 126 7
a 126 96 7
a 96 97 1
a 97 96 1
a 97 127 2
a 127 97 2
a 97 98 6
a 98 97 6
a 98 128 5
a 128 98 5
a 98 99 5
a 99 98 5
a 99 129 8
a 129 99 8
a 99 100 1
a 100 99 1
a 100 130 7
a 130 100 7
a 100 101 2
a 101 100 2
a 101 131 9
a 131 101 9
a 101 102 7
a 102 101 7
a 102 132 3
a 132 102 3
a 102 103 3
a 103 102 3
a 103 133 4
a 133 103 4
a 103 104 3
a 104 103 3
a 104 134 4
a 134 104 4
a 104 105 2
a 105 104 2
a 105 135 6
a 135 105 6
a 105 106 10
a 106 105 10
a 106 136 2
a 136 106 2
a 106 107 3
a 107 106 3
a 107 137 6
a 137 107 6
a 107 108 6
a 108 107 6
a 108 138 1
a 138 108 1
a 108 109 1
a 109 108 1
a 109 139 8
a 139 109 8
a 109 110 1
a 110 109 1
a 110 140 5
a 140 110 5
a 110 111 9
a 111 110 9
a 111 141 8
a 141 111 8
a 111 112 6
a 112 111 6
a 112 142 6
a 142 112 6
a 112 113 10
a 113 112 10
a 113 143 2
a 143 113 2
a 113 114 3
a 114 113 3
a 114 144 7
a 144 114 7
a 114 115 3
a 115 114 3
a 115 145 8
a 145 115 8
a 115 116 4
a 116 115 4
a 116 146 8
a 146 116 8
a 116 117 3
a 117 116 3
a 117 147 5
a 147 117 5
a 117 118 9
a 118 117 9
a 118 148 9
a 148 118 9
a 118 119 6
a 119 118 6
a 119 149 10
a 149 119 10
a 119 120 7
a 120 119 7
a 120 150 8
a 150 120 8
a 121 151 7
a 151 121 7
a 121 122 4
a 122 121 4
a 122 152 4
a 152 122 4
a 124 154 7
a 154 124 7
a 124 125 4
a 125 124 4
a 125 155 8
a 155 125 8
a 125 126 9
a 126 125 9
a 126 156 6
a 156 126 6
a 126 127 10
a 127 126 10
a 127 157 4
a 157 127 4
a 127 128 7
a 128 127 7
a 128 158 6
a 158 128 6
a 128 129 4
a 129 128 4
a 129 159 1
a 159 129 1
a 129 130 7
a 130 129 7
a 130 160 1
a 160 130 1
a 130 131 1
a 131 130 1
a 131 161 3
a 161 131 3
a 131 132 2
a 132 131 2
a 132 162 3
a 162 132 3
a 132 133 2
a 133 132 2
a 133 163 7
a 163 133 7
a 133 134 6
a 134 133 6
a 134 164 2
a 164 134 2
a 134 135 1
a 135 134 1
a 135 165 4
a 165 135 4
a 135 136 6
a 136 135 6
a 136 166 3
a 166 136 3
a 136 137 10
a 137 136 10
a 137 167 6
a 167 137 6
a 137 138 10
a 138 137 10
a 138 168 5
a 168 138 5
a 138 139 1
a 139 138 1
a 139 169 9
a 169 139 9
a 139 140 6
a 140 139 6
a 140 170 3
a 170 140 3
a 140 141 4
a 141 140 4
a 141 171 10
a 171 141 10
a 141 142 4
a 142 141 4
a 142 172 3
a 172 142 3
a 142 143 8
a 143 142 8
a 143 173 5
a 173 143 5
a 143 144 7
a 144 143 7
a 144 174 6
a 174 144 6
a 144 145 4
a 145 144 4
a 145 175 9
a 175 145 9
a 145 146 3
a 146 145 3
a 146 176 10
a 176 146 10
a 146 147 1
a 147 146 1
a 147 177 3
a 177 147 3
a 147 148 9
a 148 147 9
a 148 178 1
a 178 148 1
a 148 149 2
a 149 148 2
a 149 179 8
a 179 149 8
a 149 150 8
a 150 149 8
a 150 180 8
a 180 150 8
a 151 181 1
a 181 151 1
a 151 152 10
a 152 151 10
a 152 182 6
a 182 152 6
a 152 153 1
a 153 152 1
a 153 183 8
a 183 153 8
a 153 154 7
a 154 153 7
a 154 184 5
a 184 154 5
a 154 155 2
a 155 154 2
a 155 185 4
a 185 155 4
a 155 156 7
a 156 155 7
a 156 186 2
a 186 156 2
a 156 157 8
a 157 156 8
a 157 187 5
a 187 157 5
a 157 158 3
a 158 157 3
a 158 188 2
a 188 158 2
a 158 159 7
a 159 158 7
a 159 189 8
a 189 159 8
a 159 160 1
a 160 159 1
a 160 190 2
a 190 160 2
a 160 161 8
a 161 160 8
a 161 191 6
a 191 161 6
a 161 162 1
a 162 161 1
a 162 192 2
a 192 162 2
a 162 163 4
a 163 162 4
a 163 193 7
a 193 163 7
a 163 164 9
a 164 163 9
a 164 194 10
a 194 164 10
a 164 165 3
a 165 164 3
a 165 195 9
a 195 165 9
a 165 166 2
a 166 165 2
a 166 196 3
a 196 166 3
a 166 167 4
a 167 166 4
a 167 197 1
a 197 167 1
a 167 168 5
a 168 167 5
a 168 198 5
a 198 168 5
a 168 169 3
a 169 168 3
a 169 199 9
a 199 169 9
a 169 170 7
a 170 169 7
a 170 200 10
a 200 170 10
a 170 171 9
a 171 170 9
a 171 201 10
a 201 171 10
a 171 172 9
a 172 171 9
a 172 202 10
a 202 172 10
a 172 173 1
a 173 172 1
a 173 203 1
a 203 173 1
a 173 174 1
a 174 173 1
a 174 204 9
a 204 174 9
a 174 175 10
a 175 174 10
a 175 205 10
a 205 175 10
a 175 176 10
a 176 175 10
a 176 206 10
a 206 176 10
a 176 177 9
a 177 176 9
a 177 207 1
a 207 177 1
a 177 178 5
a 178 177 5
a 178 208 9
a 208 178 9
a 178 179 2
a 179 178 2
a 179 209 4
a 209 179 4
a 179 180 9
a 180 179 9
a 180 210 8
a 210 180 8
a 181 211 9
a 211 181 9
a 181 182 10
a 182 181 10
a 182 212 10
a 212 182 10
a 182 183 4
a 183 182 4
a 183 213 10
a 213 183 10
a 183 184 6
a 184 183 6
a 184 214 5
a 214 184 5
a 184 185 2
a 185 184 2
a 185 215 9
a 215 185 9
a 185 186 9
a 186 185 9
a 186 216 9
a 216 186 9
a 186 187 10
a 187 186 10
a 187 217 2
a 217 187 2
a 187 188 1
a 188 187 1
a 188 218 8
a 218 188 8
a 188 189 2
a 189 188 2
a 189 219 6
a 219 189 6
a 189 190 2
a 190 189 2
a 190 220 4
a 220 190 4
a 190 191 8
a 191 190 8
a 191 221 5
a 221 191 5
a 191 192 8
a 192 191 8
a 192 222 10
a 222 192 10
a 192 193 7
a 193 192 7
a 193 223 3
a 223 193 3
a 193 194 2
a 194 193 2
a 194 224 4
a 224 194 4
a 194 195 10
a 195 194 10
a 195 225 6
a 225 195 6
a 195 196 1
a 196 195 1
a 196 226 8
a 226 196 8
a 196 197 2
a 197 196 2
a 197 227 5
a 227 197 5
a 197 198 4
a 198 197 4
a 198 228 5
a 228 198 5
a 198 199 8
a 199 198 8
a 199 229 7
a 229 199 7
a 199 200 9
a 200 199 9
a 200 230 10
a 230 200 10
a 200 201 5
a 201 200 5
a 201 231 6
a 231 201 6
a 201 202 10
a 202 201 10
a 202 232 7
a 232 202 7
a 202 203 8
a 203 202 8
a 203 233 7
a 233 203 7
a 203 204 2
a 204 203 2
a 204 205 7
a 205 204 7
a 205 235 1
a 235 205 1
a 205 206 10
a 206 205 10
a 206 236 10
a 236 206 10
a 206 207 4
a 207 206 4
a 207 237 4
a 237 207 4
a 207 208 3
a 208 207 3
a 208 238 10
a 238 208 10
a 208 209 5
a 209 208 5
a 209 239 10
a 239 209 10
a 209 210 1
a 210 209 1
a 210 240 10
a 240 210 10
a 211 241 4
a 241 211 4
a 211 212 4
a 212 211 4
a 212 242 3
a 242 212 3
a 212 213 2
a 213 212 2
a 213 243 9
a 243 213 9
a 213 214 8
a 214 213 8
a 214 215 10
a 215 214 10
a 215 245 10
a 245 215 10
a 215 216 3
a 216 215 3
a 216 246 5
a 246 216 5
a 216 217 6
a 217 216 6
a 217 247 5
a 247 217 5
a 217 218 1
a 218 217 1
a 218 248 8
a 248 218 8
a 218 219 5
a 219 218 5
a 219 249 1
a 249 219 1
a 219 220 7
a 220 219 7
a 220 250 9
a 250 220 9
a 220 221 1
a 221 220 1
a 221 251 8
a 251 221 8
a 221 222 9
a 222 221 9
a 222 252 1
a 252 222 1
a 222 223 3
a 223 222 3
a 223 253 7
a 253 223 7
a 223 224 8
a 224 223 8
a 224 254 1
a 254 224 1
a 224 225 10
a 225 224 10
a 225 255 8
a 255 225 8
a 225 226 6
a 226 225 6
a 226 256 5
a 256 226 5
a 226 227 2
a 227 226 2
a 227 257 10
a 257 227 10
a 227 228 10
a 228 227 10
a 228 258 2
a 258 228 2
a 228 229 9
a 229 228 9
a 229 259 1
a 259 229 1
a 229 230 2
a 230 229 2
a 230 260 3
a 260 230 3
a 230 231 3
a 231 230 3
a 231 261 7
a 261 231 7
a 231 232 9
a 232 231 9
a 232 262 2
a 262 232 2
a 232 233 10
a 233 232 10
a 233 263 10
a 263 233 10
a 235 265 6
a 265 235 6
a 235 236 5
a 236 235 5
a 236 266 8
a 266 236 8
a 236 237 8
a 237 236 8
a 237 267 3
a 267 237 3
a 237 238 2
a 238 237 2
a 238 268 6
a 268 238 6
a 238 239 7
a 239 238 7
a 239 269 2
a 269 239 2
a 239 240 9
a 240 239 9
a 240 270 8
a 270 240 8
a 241 271 10
a 271 241 10
a 241 242 1
a 242 241 1
a 242 272 8
a 272 242 8
a 242 243 10
a 243 242 10
a 245 275 10
a 275 245 10
a 245 246 6
a 246 245 6
a 246 276 9
a 276 246 9
a 246 247 1
a 247 246 1
a 247 277 6
a 277 247 6
a 247 248 8
a 248 247 8
a 248 278 3
a 278 248 3
a 248 249 1
a 249 248 1
a 249 279 6
a 279 249 6
a 249 250 6
a 250 249 6
a 250 280 2
a 280 250 2
a 250 251 5
a 251 250 5
a 251 281 1
a 281 251 1
a 251 252 1
a 252 251 1
a 252 282 5
a 282 252 5
a 252 253 7
a 253 252 7
a 253 283 4
a 283 253 4
a 253 254 6
a 254 253 6
a 254 284 9
a 284 254 9
a 254 255 3
a 255 254 3
a 255 285 9
a 285 255 9
a 255 256 7
a 256 255 7
a 256 286 7
a 286 256 7
a 256 257 7
a 257 256 7
a 257 287 4
a 287 257 4
a 257 258 6
a 258 257 6
a 258 259 8
a 259 258 8
a 259 289 3
a 289 259 3
a 259 260 1
a 260 259 1
a 260 290 7
a 290 260 7
a 260 261 3
a 261 260 3
a 261 291 6
a 291 261 6
a 261 262 9
a 262 261 9
a 262 292 10
a 292 262 10
a 262 263 6
a 263 262 6
a 263 293 2
a 293 263 2
a 263 264 5
a 264 263 5
a 264 294 10
a 294 264 10
a 264 265 9
a 265 264 9
a 265 295 7
a 295 265 7
a 265 266 9
a 266 265 9
a 266 267 10
a 267 266 10
a 267 297 8
a 297 267 8
a 267 268 1
a 268 267 1
a 268 298 3
a 298 268 3
a 268 269 6
a 269 268 6
a 269 299 2
a 299 269 2
a 269 270 1
a 270 269 1
a 270 300 10
a 300 270 10
a 271 301 6
a 301 271 6
a 271 272 10
a 272 271 10
a 274 304 5
a 304 274 5
a 274 275 7
a 275 274 7
a 275 305 5
a 305 275 5
a 275 276 7
a 276 275 7
a 276 306 3
a 306 276 3
a 276 277 5
a 277 276 5
a 277 307 1
a 307 277 1
a 277 278 9
a 278 277 9
a 278 308 5
a 308 278 5
a 278 279 1
a 279 278 1
a 279 309 8
a 309 279 8
a 279 280 3
a 280 279 3
a 280 310 5
a 310 280 5
a 280 281 5
a 281 280 5
a 281 311 6
a 311 281 6
a 281 282 1
a 282 281 1
a 282 312 8
a 312 282 8
a 282 283 9
a 283 282 9
a 283 313 5
a 313 283 5
a 283 284 1
a 284 283 1
a 284 314 5
a 314 284 5
a 284 285 4
a 285 284 4
a 285 315 7
a 315 285 7
a 285 286 3
a 286 285 3
a 286 316 4
a 316 286 4
a 286 287 5
a 287 286 5
a 287 317 1
a 317 287 1
a 289 319 7
a 319 289 7
a 289 290 7
a 290 289 7
a 290 320 9
a 320 290 9
a 290 291 6
a 291 290 6
a 291 321 7
a 321 291 7
a 291 292 8
a 292 291 8
a 292 322 9
a 322 292 9
a 292 293 10
a 293 292 10
a 293 323 6
a 323 293 6
a 293 294 7
a 294 293 7
a 294 324 9
a 324 294 9
a 294 295 6
a 295 294 6
a 297 327 1
a 327 297 1
a 297 298 6
a 298 297 6
a 298 328 1
a 328 298 1
a 298 299 9
a 299 298 9
a 299 329 6
a 329 299 6
a 299 300 4
a 300 299 4
a 300 330 4
a 330 300 4
a 301 331 8
a 331 301 8
a 303 333 10
a 333 303 10
a 303 304 2
a 304 303 2
a 304 334 4
a 334 304 4
a 304 305 5
a 305 304 5
a 305 335 9
a 335 305 9
a 305 306 1
a 306 305 1
a 306 336 9
a 336 306 9
a 306 307 10
a 307 306 10
a 307 337 1
a 337 307 1
a 307 308 4
a 308 307 4
a 308 338 8
a 338 308 8
a 308 309 6
a 309 308 6
a 309 339 8
a 339 309 8
a 309 310 1
a 310 309 1
a 310 340 3
a 340 310 3
a 310 311 9
a 311 310 9
a 311 341 4
a 341 311 4
a 311 312 7
a 312 311 7
a 312 342 4
a 342 312 4
a 312 313 4
a 313 312 4
a 313 343 7
a 343 313 7
a 313 314 4
a 314 313 4
a 314 344 4
a 344 314 4
a 314 315 1
a 315 314 1
a 315 345 6
a 345 315 6
a 315 316 1
a 316 315 1
a 316 346 5
a 346 316 5
a 316 317 8
a 317 316 8
a 317 347 7
a 347 317 7
a 317 318 7
a 318 317 7
a 318 348 4
a 348 318 4
a 318 319 1
a 319 318 1
a 319 320 6
a 320 319 6
a 320 350 1
a 350 320 1
a 320 321 9
a 321 320 9
a 321 351 9
a 351 321 9
a 321 322 4
a 322 321 4
a 322 352 6
a 352 322 6
a 322 323 1
a 323 322 1
a 323 324 3
a 324 323 3
a 324 354 5
a 354 324 5
a 326 356 2
a 356 326 2
a 326 327 2
a 327 326 2
a 327 357 7
a 357 327 7
a 327 328 7
a 328 327 7
a 328 358 6
a 358 328 6
a 328 329 1
a 329 328 1
a 329 359 6
a 359 329 6
a 329 330 7
a 330 329 7
a 330 360 7
a 360 330 7
a 331 361 6
a 361 331 6
a 331 332 9
a 332 331 9
a 332 362 2
a 362 332 2
a 332 333 1
a 333 332 1
a 333 363 3
a 363 333 3
a 333 334 10
a 334 333 10
a 334 364 8
a 364 334 8
a 334 335 5
a 335 334 5
a 335 365 10
a 365 335 10
a 335 336 2
a 336 335 2
a 336 366 7
a 366 336 7
a 336 337 2
a 337 336 2
a 337 367 8
a 367 337 8
a 337 338 7
a 338 337 7
a 338 368 3
a 368 338 3
a 338 339 9
a 339 338 9
a 339 369 8
a 369 339 8
a 339 340 8
a 340 339 8
a 340 370 7
a 370 340 7
a 340 341 1
a 341 340 1
a 341 371 5
a 371 341 5
a 341 342 10
a 342 341 10
a 342 372 7
a 372 342 7
a 342 343 10
a 343 342 10
a 343 373 4
a 373 343 4
a 343 344 6
a 344 343 6
a 344 374 10
a 374 344 10
a 344 345 1
a 345 344 1
a 345 375 5
a 375 345 5
a 345 346 10
a 346 345 10
a 346 376 5
a 376 346 5
a 346 347 1
a 347 346 1
a 347 348 8
a 348 347 8
a 348 378 4
a 378 348 4
a 350 380 2
a 380 350 2
a 350 351 7
a 351 350 7
a 351 352 1
a 352 351 1
a 352 382 5
a 382 352 5
a 354 384 6
a 384 354 6
a 354 355 3
a 355 354 3
a 355 385 8
a 385 355 8
a 355 356 4
a 356 355 4
a 356 386 4
a 386 356 4
a 356 357 6
a 357 356 6
a 357 387 2
a 387 357 2
a 357 358 10
a 358 357 10
a 358 388 1
a 388 358 1
a 358 359 7
a 359 358 7
a 359 389 8
a 389 359 8
a 359 360 5
a 360 359 5
a 360 390 8
a 390 360 8
a 361 362 1
a 362 361 1
a 362 392 7
a 392 362 7
a 362 363 9
a 363 362 9
a 363 393 9
a 393 363 9
a 363 364 5
a 364 363 5
a 364 394 9
a 394 364 9
a 364 365 7
a 365 364 7
a 365 395 2
a 395 365 2
a 365 366 4
a 366 365 4
a 366 396 2
a 396 366 2
a 366 367 3
a 367 366 3
a 367 397 7
a 397 367 7
a 367 368 5
a 368 367 5
a 368 398 1
a 398 368 1
a 368 369 1
a 369 368 1
a 369 399 8
a 399 369 8
a 369 370 4
a 370 369 4
a 370 400 6
a 400 370 6
a 370 371 3
a 371 370 3
a 371 401 2
a 401 371 2
a 371 372 5
a 372 371 5
a 372 402 3
a 402 372 3
a 372 373 8
a 373 372 8
a 373 403 3
a 403 373 3
a 373 374 4
a 374 373 4
a 374 404 6
a 404 374 6
a 374 375 6
a 375 374 6
a 375 405 2
a 405 375 2
a 375 376 7
a 376 375 7
a 376 406 1
a 406 376 1
a 378 408 3
a 408 378 3
a 378 379 4
a 379 378 4
a 379 409 1
a 409 379 1
a 379 380 1
a 380 379 1
a 380 410 6
a 410 380 6
a 382 412 10
a 412 382 10
a 384 414 3
a 414 384 3
a 384 385 10
a 385 384 10
a 385 386 5
a 386 385 5
a 386 416 2
a 416 386 2
a 386 387 2
a 387 386 2
a 387 417 6
a 417 387 6
a 387 388 2
a 388 387 2
a 388 418 5
a 418 388 5
a 388 389 8
a 389 388 8
a 389 419 10
a 419 389 10
a 389 390 2
a 390 389 2
a 390 420 6
a 420 390 6
a 392 422 2
a 422 392 2
a 392 393 5
a 393 392 5
a 393 423 7
a 423 393 7
a 393 394 10
a 394 393 10
a 394 424 1
a 424 394 1
a 394 395 10
a 395 394 10
a 395 425 4
a 425 395 4
a 395 396 9
a 396 395 9
a 396 426 5
a 426 396 5
a 396 397 1
a 397 396 1
a 397 427 4
a 427 397 4
a 397 398 1
a 398 397 1
a 398 428 6
a 428 398 6
a 398 399 2
a 399 398 2
a 399 429 3
a 429 399 3
a 399 400 9
a 400 399 9
a 400 430 7
a 430 400 7
a 400 401 9
a 401 400 9
a 401 431 1
a 431 401 1
a 401 402 1
a 402 401 1
a 402 432 7
a 432 402 7
a 402 403 2
a 403 402 2
a 403 433 7
a 433 403 7
a 403 404 9
a 404 403 9
a 404 434 5
a 434 404 5
a 404 405 5
a 405 404 5
a 405 435 4
a 435 405 4
a 405 406 9
a 406 405 9
a 406 407 10
a 407 406 10
a 407 437 2
a 437 407 2
a 407 408 4
a 408 407 4
a 408 438 4
a 438 408 4
a 408 409 9
a 409 408 9
a 409 439 1
a 439 409 1
a 409 410 1
a 410 409 1
a 410 440 3
a 440 410 3
a 410 411 3
a 411 410 3
a 411 441 6
a 441 411 6
a 411 412 1
a 412 411 1
a 412 442 10
a 442 412 10
a 412 413 4
a 413 412 4
a 413 443 5
a 443 413 5
a 413 414 4
a 414 413 4
a 414 444 5
a 444 414 5
a 416 446 1
a 446 416 1
a 416 417 10
a 417 416 10
a 417 447 5
a 447 417 5
a 417 418 7
a 418 417 7
a 418 448 10
a 448 418 10
a 418 419 5
a 419 418 5
a 419 449 2
a 449 419 2
a 419 420 2
a 420 419 2
a 421 451 5
a 451 421 5
a 421 422 9
a 422 421 9
a 422 423 9
a 423 422 9
a 423 453 7
a 453 423 7
a 423 424 7
a 424 423 7
a 424 454 5
a 454 424 5
a 424 425 4
a 425 424 4
a 425 455 9
a 455 425 9
a 425 426 6
a 426 425 6
a 426 427 2
a 427 426 2
a 427 457 3
a 457 427 3
a 427 428 9
a 428 427 9
a 428 458 4
a 458 428 4
a 428 429 7
a 429 428 7
a 429 459 5
a 459 429 5
a 429 430 4
a 430 429 4
a 430 460 6
a 460 430 6
a 430 431 10
a 431 430 10
a 431 461 10
a 461 431 10
a 431 432 10
a 432 431 10
a 432 462 4
a 462 432 4
a 432 433 5
a 433 432 5
a 433 463 8
a 463 433 8
a 433 434 2
a 434 433 2
a 434 464 5
a 464 434 5
a 434 435 8
a 435 434 8
a 435 465 10
a 465 435 10
a 437 467 4
a 467 437 4
a 437 438 5
a 438 437 5
a 438 468 8
a 468 438 8
a 438 439 7
a 439 438 7
a 439 469 5
a 469 439 5
a 439 440 7
a 440 439 7
a 440 470 8
a 470 440 8
a 440 441 9
a 441 440 9
a 441 471 5
a 471 441 5
a 441 442 9
a 442 441 9
a 442 472 3
a 472 442 3
a 442 443 9
a 443 442 9
a 443 473 2
a 473 443 2
a 443 444 1
a 444 443 1
a 444 474 3
a 474 444 3
a 444 445 1
a 445 444 1
a 445 475 7
a 475 445 7
a 445 446 6
a 446 445 6
a 446 476 6
a 476 446 6
a 446 447 9
a 447 446 9
a 447 477 8
a 477 447 8
a 447 448 3
a 448 447 3
a 448 449 8
a 449 448 8
a 449 479 1
a 479 449 1
a 451 481 3
a 481 451 3
a 453 483 3
a 483 453 3
a 453 454 3
a 454 453 3
a 454 484 2
a 484 454 2
a 454 455 9
a 455 454 9
a 455 485 6
a 485 455 6
a 457 487 3
a 487 457 3
a 457 458 10
a 458 457 10
a 458 488 8
a 488 458 8
a 458 459 10
a 459 458 10
a 459 489 9
a 489 459 9
a 459 460 7
a 460 459 7
a 460 490 5
a 490 460 5
a 460 461 3
a 461 460 3
a 461 491 2
a 491 461 2
a 461 462 4
a 462 461 4
a 462 492 8
a 492 462 8
a 462 463 2
a 463 462 2
a 463 493 1
a 493 463 1
a 463 464 10
a 464 463 10
a 464 494 2
a 494 464 2
a 464 465 8
a 465 464 8
a 465 495 5
a 495 465 5
a 467 468 5
a 468 467 5
a 468 498 10
a 498 468 10
a 468 469 5
a 469 468 5
a 469 499 7
a 499 469 7
a 469 470 1
a 470 469 1
a 470 500 8
a 500 470 8
a 470 471 5
a 471 470 5
a 471 501 5
a 501 471 5
a 471 472 2
a 472 471 2
a 472 502 4
a 502 472 4
a 472 473 4
a 473 472 4
a 473 503 3
a 503 473 3
a 473 474 8
a 474 473 8
a 474 504 2
a 504 474 2
a 474 475 10
a 475 474 10
a 475 505 6
a 505 475 6
a 475 476 2
a 476 475 2
a 476 506 6
a 506 476 6
a 476 477 5
a 477 476 5
a 479 509 2
a 509 479 2
a 479 480 3
a 480 479 3
a 480 510 3
a 510 480 3
a 481 511 7
a 511 481 7
a 481 482 3
a 482 481 3
a 482 512 9
a 512 482 9
a 482 483 8
a 483 482 8
a 483 513 8
a 513 483 8
a 483 484 1
a 484 483 1
a 484 514 1
a 514 484 1
a 484 485 8
a 485 484 8
a 485 515 6
a 515 485 6
a 485 486 4
a 486 485 4
a 486 516 3
a 516 486 3
a 486 487 10
a 487 486 10
a 487 517 6
a 517 487 6
a 487 488 10
a 488 487 10
a 488 518 5
a 518 488 5
a 488 489 10
a 489 488 10
a 489 519 1
a 519 489 1
a 489 490 7
a 490 489 7
a 490 520 5
a 520 490 5
a 490 491 10
a 491 490 10
a 491 521 8
a 521 491 8
a 491 492 4
a 492 491 4
a 492 522 3
a 522 492 3
a 492 493 1
a 493 492 1
a 493 523 9
a 523 493 9
a 493 494 3
a 494 493 3
a 494 524 7
a 524 494 7
a 494 495 4
a 495 494 4
a 495 525 8
a 525 495 8
a 495 496 1
a 496 495 1
a 496 526 8
a 526 496 8
a 498 528 1
a 528 498 1
a 498 499 1
a 499 498 1
a 499 529 1
a 529 499 1
a 499 500 8
a 500 499 8
a 500 530 6
a 530 500 6
a 500 501 7
a 501 500 7
a 501 531 1
a 531 501 1
a 501 502 7
a 502 501 7
a 502 532 8
a 532 502 8
a 502 503 5
a 503 502 5
a 503 533 6
a 533 503 6
a 503 504 8
a 504 503 8
a 504 534 3
a 534 504 3
a 504 505 5
a 505 504 5
a 505 535 1
a 535 505 1
a 505 506 8
a 506 505 8
a 506 536 5
a 536 506 5
a 508 538 10
a 538 508 10
a 508 509 4
a 509 508 4
a 509 539 1
a 539 509 1
a 509 510 4
a 510 509 4
a 510 540 10
a 540 510 10
a 511 541 2
a 541 511 2
a 511 512 3
a 512 511 3
a 512 542 3
a 542 512 3
a 512 513 4
a 513 512 4
a 513 543 5
a 543 513 5
a 513 514 3
a 514 513 3
a 514 544 4
a 544 514 4
a 514 515 9
a 515 514 9
a 515 545 8
a 545 515 8
a 515 516 4
a 516 515 4
a 516 546 10
a 546 516 10
a 516 517 10
a 517 516 10
a 517 547 4
a 547 517 4
a 517 518 1
a 518 517 1
a 518 548 6
a 548 518 6
a 518 519 6
a 519 518 6
a 519 549 1
a 549 519 1
a 519 520 1
a 520 519 1
a 520 550 3
a 550 520 3
a 520 521 1
a 521 520 1
a 521 551 5
a 551 521 5
a 521 522 10
a 522 521 10
a 522 552 1
a 552 522 1
a 522 523 10
a 523 522 10
a 523 553 10
a 553 523 10
a 523 524 8
a 524 523 8
a 524 554 7
a 554 524 7
a 524 525 2
a 525 524 2
a 525 555 8
a 555 525 8
a 525 526 7
a 526 525 7
a 526 556 9
a 556 526 9
a 526 527 2
a 527 526 2
a 527 557 1
a 557 527 1
a 527 528 7
a 528 527 7
a 528 558 8
a 558 528 8
a 528 529 4
a 529 528 4
a 529 559 1
a 559 529 1
a 529 530 6
a 530 529 6
a 530 560 8
a 560 530 8
a 530 531 7
a 531 530 7
a 531 561 10
a 561 531 10
a 531 532 7
a 532 531 7
a 532 533 6
a 533 532 6
a 533 563 7
a 563 533 7
a 533 534 1
a 534 533 1
a 534 564 10
a 564 534 10
a 534 535 5
a 535 534 5
a 535 565 9
a 565 535 9
a 535 536 9
a 536 535 9
a 536 566 2
a 566 536 2
a 536 537 7
a 537 536 7
a 537 567 7
a 567 537 7
a 537 538 4
a 538 537 4
a 538 568 9
a 568 538 9
a 538 539 1
a 539 538 1
a 539 569 8
a 569 539 8
a 539 540 6
a 540 539 6
a 541 571 10
a 571 541 10
a 541 542 7
a 542 541 7
a 542 572 10
a 572 542 10
a 542 543 4
a 543 542 4
a 543 573 4
a 573 543 4
a 543 544 8
a 544 543 8
a 544 574 3
a 574 544 3
a 544 545 6
a 545 544 6
a 545 575 8
a 575 545 8
a 545 546 8
a 546 545 8
a 546 576 1
a 576 546 1
a 546 547 10
a 547 546 10
a 547 577 7
a 577 547 7
a 547 548 2
a 548 547 2
a 548 578 1
a 578 548 1
a 548 549 3
a 549 548 3
a 549 579 3
a 579 549 3
a 549 550 8
a 550 549 8
a 550 580 10
a 580 550 10
a 550 551 10
a 551 550 10
a 551 581 5
a 581 551 5
a 551 552 9
a 552 551 9
a 552 582 9
a 582 552 9
a 552 553 4
a 553 552 4
a 553 583 7
a 583 553 7
a 553 554 2
a 554 553 2
a 554 584 9
a 584 554 9
a 554 555 6
a 555 554 6
a 555 585 3
a 585 555 3
a 555 556 5
a 556 555 5
a 556 586 5
a 586 556 5
a 556 557 8
a 557 556 8
a 557 587 2
a 587 557 2
a 557 558 5
a 558 557 5
a 558 588 6
a 588 558 6
a 558 559 7
a 559 558 7
a 559 589 9
a 589 559 9
a 559 560 5
a 560 559 5
a 560 561 9
a 561 560 9
a 561 591 7
a 591 561 7
a 563 593 8
a 593 563 8
a 563 564 8
a 564 563 8
a 564 594 5
a 594 564 5
a 564 565 7
a 565 564 7
a 565 595 6
a 595 565 6
a 565 566 5
a 566 565 5
a 566 596 8
a 596 566 8
a 566 567 6
a 567 566 6
a 567 597 2
a 597 567 2
a 567 568 7
a 568 567 7
a 568 598 5
a 598 568 5
a 568 569 3
a 569 568 3
a 569 599 6
a 599 569 6
a 571 601 3
a 601 571 3
a 571 572 9
a 572 571 9
a 572 602 3
a 602 572 3
a 572 573 3
a 573 572 3
a 573 603 5
a 603 573 5
a 573 574 10
a 574 573 10
a 574 604 7
a 604 574 7
a 574 575 8
a 575 574 8
a 575 605 8
a 605 575 8
a 575 576 2
a 576 575 2
a 576 606 10
a 606 576 10
a 576 577 2
a 577 576 2
a 577 607 9
a 607 577 9
a 577 578 3
a 578 577 3
a 578 608 6
a 608 578 6
a 578 579 2
a 579 578 2
a 579 609 4
a 609 579 4
a 579 580 9
a 580 579 9
a 580 610 9
a 610 580 9
a 580 581 9
a 581 580 9
a 581 611 5
a 611 581 5
a 581 582 6
a 582 581 6
a 582 612 2
a 612 582 2
a 582 583 6
a 583 582 6
a 583 613 10
a 613 583 10
a 583 584 2
a 584 583 2
a 584 614 4
a 614 584 4
a 584 585 1
a 585 584 1
a 585 615 1
a 615 585 1
a 585 586 1
a 586 585 1
a 586 616 1
a 616 586 1
a 586 587 3
a 587 586 3
a 587 617 2
a 617 587 2
a 587 588 4
a 588 587 4
a 588 618 8
a 618 588 8
a 588 589 2
a 589 588 2
a 589 619 7
a 619 589 7
a 591 592 5
a 592 591 5
a 592 622 1
a 622 592 1
a 592 593 10
a 593 592 10
a 593 623 7
a 623 593 7
a 593 594 10
a 594 593 10
a 594 624 5
a 624 594 5
a 594 595 6
a 595 594 6
a 595 625 7
a 625 595 7
a 595 596 5
a 596 595 5
a 596 626 7
a 626 596 7
a 596 597 9
a 597 596 9
a 597 627 7
a 627 597 7
a 597 598 10
a 598 597 10
a 598 628 4
a 628 598 4
a 598 599 4
a 599 598 4
a 599 629 7
a 629 599 7
a 599 600 6
a 600 599 6
a 600 630 3
a 630 600 3
a 601 631 10
a 631 601 10
a 601 602 10
a 602 601 10
a 602 632 2
a 632 602 2
a 602 603 6
a 603 602 6
a 603 633 4
a 633 603 4
a 603 604 8
a 604 603 8
a 604 634 2
a 634 604 2
a 604 605 9
a 605 604 9
a 605 635 9
a 635 605 9
a 605 606 8
a 606 605 8
a 606 636 6
a 636 606 6
a 606 607 6
a 607 606 6
a 607 637 6
a 637 607 6
a 607 608 3
a 608 607 3
a 608 638 6
a 638 608 6
a 608 609 9
a 609 608 9
a 609 639 6
a 639 609 6
a 609 610 1
a 610 609 1
a 610 640 1
a 640 610 1
a 610 611 1
a 611 610 1
a 611 641 2
a 641 611 2
a 611 612 6
a 612 611 6
a 612 642 4
a 642 612 4
a 612 613 1
a 613 612 1
a 613 643 1
a 643 613 1
a 613 614 4
a 614 613 4
a 614 644 3
a 644 614 3
a 614 615 3
a 615 614 3
a 615 645 1
a 645 615 1
a 615 616 9
a 616 615 9
a 616 646 7
a 646 616 7
a 616 617 6
a 617 616 6
a 617 647 5
a 647 617 5
a 617 618 1
a 618 617 1
a 618 648 2
a 648 618 2
a 618 619 6
a 619 618 6
a 619 649 10
a 649 619 10
a 619 620 6
a 620 619 6
a 620 650 10
a 650 620 10
a 622 652 8
a 652 622 8
a 622 623 10
a 623 622 10
a 623 653 6
a 653 623 6
a 623 624 1
a 624 623 1
a 624 654 2
a 654 624 2
a 624 625 1
a 625 624 1
a 625 655 10
a 655 625 10
a 625 626 1
a 626 625 1
a 626 656 6
a 656 626 6
a 626 627 6
a 627 626 6
a 627 657 1
a 657 627 1
a 627 628 2
a 628 627 2
a 628 658 1
a 658 628 1
a 628 629 4
a 629 628 4
a 629 659 5
a 659 629 5
a 629 630 1
a 630 629 1
a 630 660 1
a 660 630 1
a 631 661 1
a 661 631 1
a 631 632 7
a 632 631 7
a 632 662 4
a 662 632 4
a 632 633 3
a 633 632 3
a 633 663 7
a 663 633 7
a 633 634 8
a 634 633 8
a 634 664 8
a 664 634 8
a 634 635 5
a 635 634 5
a 635 665 6
a 665 635 6
a 635 636 5
a 636 635 5
a 636 666 7
a 666 636 7
a 636 637 3
a 637 636 3
a 637 667 10
a 667 637 10
a 637 638 9
a 638 637 9
a 638 668 10
a 668 638 10
a 638 639 7
a 639 638 7
a 639 669 3
a 669 639 3
a 639 640 3
a 640 639 3
a 640 670 1
a 670 640 1
a 640 641 6
a 641 640 6
a 641 671 4
a 671 641 4
a 641 642 3
a 642 641 3
a 642 672 1
a 672 642 1
a 642 643 6
a 643 642 6
a 643 673 2
a 673 643 2
a 643 644 3
a 644 643 3
a 644 674 10
a 674 644 10
a 644 645 2
a 645 644 2
a 645 675 4
a 675 645 4
a 645 646 2
a 646 645 2
a 646 676 9
a 676 646 9
a 646 647 5
a 647 646 5
a 647 677 4
a 677 647 4
a 647 648 8
a 648 647 8
a 648 678 3
a 678 648 3
a 648 649 7
a 649 648 7
a 649 679 7
a 679 649 7
a 649 650 2
a 650 649 2
a 650 680 7
a 680 650 7
a 650 651 6
a 651 650 6
a 651 681 4
a 681 651 4
a 651 652 8
a 652 651 8
a 652 682 3
a 682 652 3
a 652 653 2
a 653 652 2
a 653 683 1
a 683 653 1
a 653 654 8
a 654 653 8
a 654 684 4
a 684 654 4
a 654 655 6
a 655 654 6
a 655 685 1
a 685 655 1
a 655 656 9
a 656 655 9
a 656 686 4
a 686 656 4
a 656 657 6
a 657 656 6
a 657 687 9
a 687 657 9
a 657 658 4
a 658 657 4
a 658 688 3
a 688 658 3
a 658 659 2
a 659 658 2
a 659 689 10
a 689 659 10
a 659 660 4
a 660 659 4
a 660 690 7
a 690 660 7
a 661 691 2
a 691 661 2
a 661 662 1
a 662 661 1
a 662 692 5
a 692 662 5
a 662 663 8
a 663 662 8
a 663 693 1
a 693 663 1
a 663 664 4
a 664 663 4
a 664 665 2
a 665 664 2
a 665 695 1
a 695 665 1
a 665 666 10
a 666 665 10
a 666 696 1
a 696 666 1
a 666 667 5
a 667 666 5
a 667 697 2
a 697 667 2
a 667 668 6
a 668 667 6
a 668 698 4
a 698 668 4
a 668 669 10
a 669 668 10
a 669 699 1
a 699 669 1
a 669 670 9
a 670 669 9
a 670 700 3
a 700 670 3
a 670 671 9
a 671 670 9
a 671 701 5
a 701 671 5
a 671 672 3
a 672 671 3
a 672 702 8
a 702 672 8
a 672 673 9
a 673 672 9
a 673 703 2
a 703 673 2
a 673 674 6
a 674 673 6
a 674 704 8
a 704 674 8
a 674 675 8
a 675 674 8
a 675 705 8
a 705 675 8
a 675 676 9
a 676 675 9
a 676 706 7
a 706 676 7
a 676 677 3
a 677 676 3
a 677 707 4
a 707 677 4
a 677 678 8
a 678 677 8
a 678 708 5
a 708 678 5
a 678 679 7
a 679 678 7
a 679 709 4
a 709 679 4
a 679 680 2
a 680 679 2
a 680 710 10
a 710 680 10
a 680 681 9
a 681 680 9
a 681 711 3
a 711 681 3
a 681 682 7
a 682 681 7
a 682 712 3
a 712 682 3
a 682 683 4
a 683 682 4
a 683 713 1
a 713 683 1
a 683 684 7
a 684 683 7
a 684 714 6
a 714 684 6
a 684 685 9
a 685 684 9
a 685 715 6
a 715 685 6
a 685 686 5
a 686 685 5
a 686 716 3
a 716 686 3
a 686 687 6
a 687 686 6
a 687 717 8
a 717 687 8
a 687 688 2
a 688 687 2
a 688 689 9
a 689 688 9
a 689 690 4
a 690 689 4
a 690 720 8
a 720 690 8
a 691 721 4
a 721 691 4
a 691 692 5
a 692 691 5
a 692 722 10
a 722 692 10
a 692 693 2
a 693 692 2
a 693 723 9
a 723 693 9
a 695 725 6
a 725 695 6
a 695 696 2
a 696 695 2
a 696 726 5
a 726 696 5
a 696 697 10
a 697 696 10
a 697 727 4
a 727 697 4
a 697 698 4
a 698 697 4
a 698 728 8
a 728 698 8
a 698 699 2
a 699 698 2
a 699 729 8
a 729 699 8
a 699 700 7
a 700 699 7
a 700 730 7
a 730 700 7
a 700 701 5
a 701 700 5
a 701 731 1
a 731 701 1
a 701 702 4
a 702 701 4
a 702 732 9
a 732 702 9
a 702 703 3
a 703 702 3
a 703 704 9
a 704 703 9
a 704 734 1
a 734 704 1
a 704 705 10
a 705 704 10
a 705 735 4
a 735 705 4
a 705 706 10
a 706 705 10
a 706 736 2
a 736 706 2
a 706 707 6
a 707 706 6
a 707 737 5
a 737 707 5
a 707 708 1
a 708 707 1
a 708 738 3
a 738 708 3
a 708 709 4
a 709 708 4
a 709 739 2
a 739 709 2
a 709 710 4
a 710 709 4
a 710 740 10
a 740 710 10
a 710 711 4
a 711 710 4
a 711 741 6
a 741 711 6
a 711 712 7
a 712 711 7
a 712 742 10
a 742 712 10
a 712 713 1
a 713 712 1
a 713 743 4
a 743 713 4
a 713 714 9
a 714 713 9
a 714 744 2
a 744 714 2
a 714 715 3
a 715 714 3
a 715 745 1
a 745 715 1
a 715 716 6
a 716 715 6
a 716 746 8
a 746 716 8
a 716 717 10
a 717 716 10
a 717 747 9
a 747 717 9
a 720 750 6
a 750 720 6
a 721 751 6
a 751 721 6
a 721 722 10
a 722 721 10
a 722 752 7
a 752 722 7
a 722 723 4
a 723 722 4
a 723 753 9
a 753 723 9
a 723 724 6
a 724 723 6
a 724 754 9
a 754 724 9
a 724 725 4
a 725 724 4
a 725 755 4
a 755 725 4
a 725 726 4
a 726 725 4
a 726 756 8
a 756 726 8
a 726 727 10
a 727 726 10
a 727 757 7
a 757 727 7
a 727 728 10
a 728 727 10
a 728 758 2
a 758 728 2
a 728 729 4
a 729 728 4
a 729 759 10
a 759 729 10
a 729 730 3
a 730 729 3
a 730 760 3
a 760 730 3
a 730 731 4
a 731 730 4
a 731 761 8
a 761 731 8
a 731 732 7
a 732 731 7
a 732 762 8
a 762 732 8
a 734 764 2
a 764 734 2
a 734 735 1
a 735 734 1
a 735 765 1
a 765 735 1
a 735 736 6
a 736 735 6
a 736 766 1
a 766 736 1
a 736 737 4
a 737 736 4
a 737 767 2
a 767 737 2
a 737 738 10
a 738 737 10
a 738 768 5
a 768 738 5
a 738 739 3
a 739 738 3
a 739 769 5
a 769 739 5
a 739 740 7
a 740 739 7
a 740 770 1
a 770 740 1
a 740 741 3
a 741 740 3
a 741 771 4
a 771 741 4
a 741 742 1
a 742 741 1
a 742 772 1
a 772 742 1
a 742 743 10
a 743 742 10
a 743 773 6
a 773 743 6
a 743 744 6
a 744 743 6
a 744 774 5
a 774 744 5
a 744 745 5
a 745 744 5
a 745 775 2
a 775 745 2
a 745 746 4
a 746 745 4
a 746 776 3
a 776 746 3
a 746 747 10
a 747 746 10
a 747 777 7
a 777 747 7
a 747 748 5
a 748 747 5
a 748 778 8
a 778 748 8
a 748 749 1
a 749 748 1
a 749 779 4
a 779 749 4
a 749 750 6
a 750 749 6
a 750 780 5
a 780 750 5
a 751 781 8
a 781 751 8
a 751 752 7
a 752 751 7
a 752 782 3
a 782 752 3
a 752 753 7
a 753 752 7
a 753 783 9
a 783 753 9
a 753 754 5
a 754 753 5
a 754 784 10
a 784 754 10
a 754 755 1
a 755 754 1
a 755 785 3
a 785 755 3
a 755 756 2
a 756 755 2
a 756 786 6
a 786 756 6
a 756 757 10
a 757 756 10
a 757 758 1
a 758 757 1
a 758 788 3
a 788 758 3
a 758 759 7
a 759 758 7
a 759 789 9
a 789 759 9
a 759 760 3
a 760 759 3
a 760 790 1
a 790 760 1
a 760 761 7
a 761 760 7
a 761 791 6
a 791 761 6
a 761 762 4
a 762 761 4
a 762 792 9
a 792 762 9
a 762 763 10
a 763 762 10
a 763 764 4
a 764 763 4
a 764 794 10
a 794 764 10
a 764 765 4
a 765 764 4
a 765 795 1
a 795 765 1
a 765 766 5
a 766 765 5
a 766 796 5
a 796 766 5
a 766 767 9
a 767 766 9
a 767 797 2
a 797 767 2
a 767 768 9
a 768 767 9
a 768 798 10
a 798 768 10
a 768 769 9
a 769 768 9
a 769 799 10
a 799 769 10
a 769 770 3
a 770 769 3
a 770 800 2
a 800 770 2
a 770 771 6
a 771 770 6
a 771 801 6
a 801 771 6
a 771 772 7
a 772 771 7
a 772 802 2
a 802 772 2
a 772 773 4
a 773 772 4
a 773 803 8
a 803 773 8
a 773 774 1
a 774 773 1
a 774 804 8
a 804 774 8
a 774 775 8
a 775 774 8
a 775 805 7
a 805 775 7
a 775 776 7
a 776 775 7
a 776 806 9
a 806 776 9
a 776 777 2
a 777 776 2
a 777 807 3
a 807 777 3
a 777 778 10
a 778 777 10
a 778 808 8
a 808 778 8
a 778 779 4
a 779 778 4
a 779 809 3
a 809 779 3
a 779 780 7
a 780 779 7
a 780 810 8
a 810 780 8
a 781 811 10
a 811 781 10
a 781 782 6
a 782 781 6
a 782 812 4
a 812 782 4
a 782 783 9
a 783 782 9
a 783 813 2
a 813 783 2
a 783 784 1
a 784 783 1
a 784 814 7
a 814 784 7
a 784 785 6
a 785 784 6
a 785 815 5
a 815 785 5
a 785 786 2
a 786 785 2
a 786 816 2
a 816 786 2
a 788 818 3
a 818 788 3
a 788 789 1
a 789 788 1
a 789 819 5
a 819 789 5
a 789 790 5
a 790 789 5
a 790 820 8
a 820 790 8
a 790 791 10
a 791 790 10
a 791 792 3
a 792 791 3
a 792 822 1
a 822 792 1
a 794 824 10
a 824 794 10
a 794 795 6
a 795 794 6
a 795 825 3
a 825 795 3
a 795 796 9
a 796 795 9
a 796 826 5
a 826 796 5
a 796 797 3
a 797 796 3
a 797 827 3
a 827 797 3
a 797 798 8
a 798 797 8
a 798 828 7
a 828 798 7
a 798 799 10
a 799 798 10
a 799 829 9
a 829 799 9
a 799 800 7
a 800 799 7
a 800 830 5
a 830 800 5
a 800 801 10
a 801 800 10
a 801 831 4
a 831 801 4
a 801 802 2
a 802 801 2
a 802 832 2
a 832 802 2
a 802 803 7
a 803 802 7
a 803 833 5
a 833 803 5
a 803 804 7
a 804 803 7
a 804 834 10
a 834 804 10
a 804 805 2
a 805 804 2
a 805 835 8
a 835 805 8
a 805 806 7
a 806 805 7
a 806 836 7
a 836 806 7
a 806 807 8
a 807 806 8
a 807 837 2
a 837 807 2
a 807 808 3
a 808 807 3
a 808 838 3
a 838 808 3
a 808 809 5
a 809 808 5
a 809 839 4
a 839 809 4
a 809 810 10
a 810 809 10
a 810 840 7
a 840 810 7
a 811 841 5
a 841 811 5
a 811 812 3
a 812 811 3
a 812 842 7
a 842 812 7
a 812 813 3
a 813 812 3
a 813 843 7
a 843 813 7
a 813 814 4
a 814 813 4
a 814 844 7
a 844 814 7
a 814 815 1
a 815 814 1
a 815 845 5
a 845 815 5
a 815 816 3
a 816 815 3
a 816 846 1
a 846 816 1
a 816 817 7
a 817 816 7
a 817 847 2
a 847 817 2
a 817 818 8
a 818 817 8
a 818 848 6
a 848 818 6
a 818 819 5
a 819 818 5
a 819 849 1
a 849 819 1
a 819 820 9
a 820 819 9
a 820 850 8
a 850 820 8
a 822 852 8
a 852 822 8
a 822 823 9
a 823 822 9
a 823 853 6
a 853 823 6
a 823 824 1
a 824 823 1
a 824 854 10
a 854 824 10
a 824 825 8
a 825 824 8
a 825 855 8
a 855 825 8
a 825 826 6
a 826 825 6
a 826 856 3
a 856 826 3
a 826 827 8
a 827 826 8
a 827 857 3
a 857 827 3
a 827 828 3
a 828 827 3
a 828 858 2
a 858 828 2
a 828 829 6
a 829 828 6
a 829 859 7
a 859 829 7
a 829 830 5
a 830 829 5
a 830 860 7
a 860 830 7
a 830 831 6
a 831 830 6
a 831 861 8
a 861 831 8
a 831 832 6
a 832 831 6
a 832 862 2
a 862 832 2
a 832 833 5
a 833 832 5
a 833 863 4
a 863 833 4
a 833 834 3
a 834 833 3
a 834 864 5
a 864 834 5
a 834 835 7
a 835 834 7
a 835 865 10
a 865 835 10
a 835 836 4
a 836 835 4
a 836 866 4
a 866 836 4
a 836 837 7
a 837 836 7
a 837 838 2
a 838 837 2
a 838 868 7
a 868 838 7
a 838 839 1
a 839 838 1
a 839 840 2
a 840 839 2
a 840 870 6
a 870 840 6
a 841 871 6
a 871 841 6
a 841 842 7
a 842 841 7
a 842 872 6
a 872 842 6
a 842 843 7
a 843 842 7
a 843 844 2
a 844 843 2
a 844 874 2
a 874 844 2
a 844 845 10
a 845 844 10
a 845 875 6
a 875 845 6
a 845 846 2
a 846 845 2
a 846 876 3
a 876 846 3
a 846 847 2
a 847 846 2
a 847 877 10
a 877 847 10
a 847 848 5
a 848 847 5
a 848 849 3
a 849 848 3
a 849 879 8
a 879 849 8
a 849 850 8
a 850 849 8
a 850 880 9
a 880 850 9
a 850 851 9
a 851 850 9
a 851 881 6
a 881 851 6
a 851 852 6
a 852 851 6
a 852 882 4
a 882 852 4
a 852 853 2
a 853 852 2
a 853 883 5
a 883 853 5
a 853 854 3
a 854 853 3
a 854 884 8
a 884 854 8
a 854 855 9
a 855 854 9
a 855 885 7
a 885 855 7
a 855 856 5
a 856 855 5
a 856 886 2
a 886 856 2
a 856 857 5
a 857 856 5
a 857 887 2
a 887 857 2
a 857 858 4
a 858 857 4
a 858 888 10
a 888 858 10
a 858 859 10
a 859 858 10
a 859 860 2
a 860 859 2
a 860 890 5
a 890 860 5
a 860 861 7
a 861 860 7
a 861 891 10
a 891 861 10
a 861 862 3
a 862 861 3
a 862 892 3
a 892 862 3
a 862 863 4
a 863 862 4
a 863 893 6
a 893 863 6
a 863 864 10
a 864 863 10
a 864 894 1
a 894 864 1
a 864 865 2
a 865 864 2
a 865 895 2
a 895 865 2
a 865 866 8
a 866 865 8
a 866 896 1
a 896 866 1
a 868 898 9
a 898 868 9
a 870 900 1
a 900 870 1
a 871 872 10
a 872 871 10
a 874 875 6
a 875 874 6
a 875 876 8
a 876 875 8
a 876 877 6
a 877 876 6
a 879 880 10
a 880 879 10
a 880 881 3
a 881 880 3
a 881 882 3
a 882 881 3
a 882 883 1
a 883 882 1
a 883 884 2
a 884 883 2
a 884 885 1
a 885 884 1
a 885 886 3
a 886 885 3
a 886 887 3
a 887 886 3
a 887 888 5
a 888 887 5
a 890 891 8
a 891 890 8
a 891 892 5
a 892 891 5
a 892 893 7
a 893 892 7
a 893 894 6
a 894 893 6
a 894 895 9
a 895 894 9
a 895 896 6
a 896 895 6
a 896 897 10
a 897 896 10
a 897 898 9
a 898 897 9
a 898 899 7
a 899 898 7
a 899 900 5
a 900 899 5
